[1, 2, 3, 4, 5, 6, 7, 8, 9, 10, 11, 12, 13, 14, 15, 16, 17, 18, 19, 20, 21, 22, 23, 24, 25, 26, 27, 28, 29, 30, 115, 33, 35, 39, 36, 38, 38, 39, 39, 40, 41, 43, 42, 44, 44, 46, 47, 48, 45, 49, 47, 50, 54, 55, 56, 55, 55, 58, 59, 63, 62, 64, 58, 60, 63, 65, 70, 111, 71, 71, 76, 75, 74, 72, 73, 71, 72, 84, 83, 82, 81, 82, 84, 85, 87, 87, 89, 88, 86, 87, 86, 86, 88, 95, 97, 96, 98, 94, 99, 100, 101, 104, 104, 104, 105, 105, 106, 109, 110, 110, 111, 114, 114, 113, 115, 111, 112, 120, 121, 124, 123, 124, 122, 121, 124, 126, 128, 128, 128, 129, 130, 132, 133, 136, 136, 135, 137, 139, 139, 140, 141, 140, 142, 146, 145, 144, 146, 148, 148, 147, 149, 150, 153, 154, 155, 156, 156, 158, 159, 160, 161, 164, 165, 163, 162, 166, 167, 168, 169, 170, 172, 171, 171, 174, 177, 176, 177, 178, 179, 176, 176, 181, 184, 186, 186, 185, 187, 188, 190, 191, 191, 192, 194, 193, 194, 197, 197, 198, 200, 199, 199, 200, 203, 204, 207, 206, 210, 210, 209, 208, 212, 212, 211, 214, 215, 214, 215, 219, 218, 220, 221, 218, 223, 224, 225, 226, 228, 228, 229, 231, 231, 232, 233, 234, 234, 236, 237, 238, 239, 241, 241, 242, 243, 244, 245, 246, 247, 249, 248, 251, 250, 252, 253, 253, 255, 252, 257, 254, 257, 256, 264, 265, 266, 267, 268, 268, 269, 268, 267, 270, 271, 272, 273, 273, 276, 276, 277, 279, 278, 193]
[1, 2, 3, 4, 5, 6, 7, 8, 9, 10, 11, 12, 13, 14, 15, 16, 17, 18, 19, 20, 21, 22, 23, 24, 25, 26, 27, 28, 29, 49, 108, 220]
